! DLPNO-CCSD cc-pVDZ


*xyzfile 0 1 mol.xyz

